%%%mzn-stat: initTime=0.027782929
%%%mzn-stat: objective=145
%%%mzn-stat: nodes=1305
%%%mzn-stat: restarts=0
%%%mzn-stat: peakDepth=1026
%%%mzn-stat: solveTime=0.160546011
%%%mzn-stat: variables=2416
%%%mzn-stat: propagators=2022
%%%mzn-stat: failures=153
%%%mzn-stat: propagations=145899
%%%mzn-stat: nogoods=153
%%%mzn-stat: AverageConflictSize=2.0784313725490198
%%%mzn-stat: NumUnitNogoodsLearned=144
%%%mzn-stat: AverageLearnedNogoodLength=5.26797385620915
%%%mzn-stat: AverageBacktrackAmount=0
%%%mzn-stat: AverageLbd=1.7647058823529411
%%%mzn-stat-end
maxleg = 145;
succ = array1d(1..150,[112, 119, 91, 72, 66, 3, 148, 127, 29, 144, 41, 137, 110, 43, 28, 126, 24, 39, 69, 21, 130, 9, 13, 88, 68, 113, 150, 45, 2, 115, 124, 40, 14, 146, 56, 17, 35, 7, 135, 38, 94, 12, 20, 25, 99, 107, 147, 100, 74, 131, 79, 140, 58, 82, 71, 46, 143, 49, 125, 75, 1, 76, 138, 48, 129, 83, 85, 5, 98, 36, 104, 65, 86, 103, 117, 92, 139, 101, 62, 141, 133, 111, 60, 22, 4, 54, 81, 32, 61, 19, 50, 128, 109, 18, 44, 80, 77, 93, 106, 90, 33, 64, 142, 42, 37, 78, 52, 89, 67, 73, 47, 97, 11, 70, 26, 23, 134, 114, 102, 136, 31, 145, 121, 149, 6, 95, 116, 53, 118, 132, 123, 96, 105, 10, 34, 55, 84, 51, 27, 30, 63, 57, 120, 15, 87, 16, 59, 8, 108, 122]);
% time elapsed: 4.57 s
----------
==========
% time elapsed: 4.57 s
%%%mzn-stat: initTime=0.027782929
%%%mzn-stat: objective=145
%%%mzn-stat: nodes=1305
%%%mzn-stat: restarts=0
%%%mzn-stat: peakDepth=1026
%%%mzn-stat: solveTime=0.160558513
%%%mzn-stat: variables=2416
%%%mzn-stat: propagators=2022
%%%mzn-stat: failures=153
%%%mzn-stat: propagations=145899
%%%mzn-stat: nogoods=153
%%%mzn-stat: AverageConflictSize=2.0784313725490198
%%%mzn-stat: NumUnitNogoodsLearned=144
%%%mzn-stat: AverageLearnedNogoodLength=5.26797385620915
%%%mzn-stat: AverageBacktrackAmount=0
%%%mzn-stat: AverageLbd=1.7647058823529411
%%%mzn-stat-end
